5131 4267 2 5 10 11 12 15 17 22 25 27 30 35 37 38 45 49 51 54 55 59 69 70 71 75 76 82 84 91 93 105 106 109 112 115 116 119 122 125 128 139 142 147 156 160 165 172 177 181 183 187 191 197 205 210 211 215 217 220 222 224 226 239 243 245 256 258 259 268 272 278 281 283 288 294 295 299 303 307 313 315 316 318 320 324 337 339 347 354 356 358 371 372 384 385 411 413 416 419 420 421 424 427 429 432 433 434 435 436 441 443 444 445 451 461 464 465 473 475 476 477 483 487 493 497 499 